numOfMachines = 4;
numOfRobots = 2;
numOfJobs = 6;
maxOperations = 3;
operationsCount = [2,2,2,3,3,3];

operation = [
[<0,0,0>,<1,20,0>,<4,36,1>],
[<0,0,0>,<2,20,0>,<4,36,0>],
[<0,0,0>,<1,20,0>,<3,40,0>],
[<0,0,0>,<2,20,0>,<3,30,1>,<4,24,0>],
[<0,0,0>,<1,20,0>,<2,30,1>,<4,24,0>],
[<0,0,0>,<1,20,0>,<2,30,0>,<3,24,0>]
];